c FILE: i080-203

c SOURCE: From steinlib

c DESCRIPTION: Steinlib instance with 80 nodes and 120 edges.

p edge 80 120
e 1 4
e 1 10
e 1 19
e 1 49
e 1 50
e 1 65
e 1 78
e 2 19
e 2 62
e 3 4
e 3 26
e 3 57
e 3 66
e 4 67
e 5 7
e 5 21
e 5 31
e 5 55
e 6 7
e 6 15
e 6 61
e 6 64
e 7 32
e 7 35
e 7 67
e 7 71
e 7 72
e 8 39
e 9 10
e 10 39
e 10 59
e 10 75
e 11 16
e 12 27
e 13 36
e 14 18
e 14 54
e 15 61
e 16 62
e 17 24
e 17 51
e 17 54
e 17 56
e 18 43
e 18 45
e 19 22
e 19 34
e 19 52
e 20 44
e 20 77
e 21 59
e 22 37
e 23 38
e 23 56
e 23 70
e 23 78
e 24 31
e 24 39
e 24 62
e 25 53
e 25 58
e 26 32
e 26 74
e 27 42
e 27 55
e 27 78
e 28 36
e 29 35
e 29 39
e 29 79
e 30 62
e 30 73
e 32 33
e 32 36
e 32 50
e 32 62
e 32 66
e 32 72
e 33 66
e 34 68
e 36 53
e 36 58
e 36 72
e 36 80
e 37 55
e 38 47
e 39 62
e 40 51
e 40 60
e 40 62
e 41 74
e 42 45
e 43 50
e 44 67
e 45 51
e 45 70
e 46 66
e 48 59
e 49 60
e 49 76
e 50 69
e 50 79
e 51 52
e 52 63
e 54 57
e 54 59
e 55 57
e 55 58
e 55 78
e 58 59
e 59 77
e 60 74
e 62 63
e 62 68
e 64 68
e 65 73
e 66 78
e 68 78
e 70 74
e 72 75
